
  12    4
  10   10   10   10

   0   0   0   0   0   6 2 3 4 5 6 7 
  10  10  10  10  10   2 11 9 
   5  10  10  10  10   2 11 9 
   3  10  10  10  10   2 11 9 
  10  10  10  10  10   2 10 9 
   1  10  10  10  10   2 10 9 
   4  10  10  10  10   1 8 
   6  10  10  10  10   1 10 
   5  10  10  10  10   1 12
   2  10  10  10  10   1 12
  10  10  10  10  10   1 12
   0   0   0   0   0   0 
